75
1 0 51
2 0 91
2 1 30
3 0 43
3 1 34
3 2 77
4 0 25
4 1 13
4 2 56
4 3 27
5 0 55
5 1 97
5 2 54
5 3 14
5 4 62
6 0 48
6 1 21
6 2 14
6 3 70
6 4 50
6 5 75
7 0 43
7 1 13
7 2 13
7 3 99
7 4 46
7 5 36
7 6 44
8 0 60
8 1 84
8 2 58
8 3 10
8 4 38
8 5 83
8 6 98
8 7 31
9 0 50
9 1 49
9 2 81
9 3 45
9 4 35
9 5 68
9 6 90
9 7 47
9 8 33
10 0 24
10 1 29
10 2 91
10 3 86
10 4 30
10 5 3
10 6 14
10 7 35
10 8 47
10 9 49
11 0 7
11 1 88
11 2 13
11 3 55
11 4 46
11 5 92
11 6 50
11 7 62
11 8 79
11 9 34
11 10 83
12 0 32
12 1 91
12 2 39
12 3 3
12 4 27
12 5 32
12 6 63
12 7 71
12 8 37
12 9 64
12 10 78
12 11 13
13 0 40
13 1 55
13 2 7
13 3 91
13 4 99
13 5 35
13 6 63
13 7 24
13 8 14
13 9 95
13 10 83
13 11 93
13 12 93
14 0 90
14 1 70
14 2 79
14 3 4
14 4 68
14 5 90
14 6 89
14 7 26
14 8 52
14 9 78
14 10 84
14 11 12
14 12 39
14 13 50
15 0 16
15 1 27
15 2 87
15 3 33
15 4 26
15 5 31
15 6 19
15 7 49
15 8 75
15 9 8
15 10 51
15 11 30
15 12 96
15 13 76
15 14 28
16 0 31
16 1 1
16 2 24
16 3 33
16 4 77
16 5 70
16 6 48
16 7 81
16 8 80
16 9 15
16 10 4
16 11 41
16 12 72
16 13 93
16 14 86
16 15 30
17 0 68
17 1 5
17 2 94
17 3 75
17 4 60
17 5 18
17 6 60
17 7 39
17 8 83
17 9 83
17 10 49
17 11 54
17 12 17
17 13 48
17 14 40
17 15 14
17 16 20
18 0 78
18 1 55
18 2 18
18 3 98
18 4 39
18 5 11
18 6 56
18 7 61
18 8 7
18 9 94
18 10 93
18 11 20
18 12 3
18 13 73
18 14 84
18 15 16
18 16 75
18 17 33
19 0 31
19 1 9
19 2 68
19 3 69
19 4 65
19 5 46
19 6 58
19 7 70
19 8 3
19 9 81
19 10 42
19 11 10
19 12 29
19 13 50
19 14 10
19 15 90
19 16 84
19 17 85
19 18 33
20 0 29
20 1 83
20 2 43
20 3 56
20 4 83
20 5 72
20 6 79
20 7 73
20 8 29
20 9 5
20 10 85
20 11 15
20 12 74
20 13 10
20 14 78
20 15 100
20 16 53
20 17 53
20 18 9
20 19 99
21 0 19
21 1 46
21 2 23
21 3 40
21 4 61
21 5 36
21 6 95
21 7 43
21 8 99
21 9 84
21 10 25
21 11 51
21 12 23
21 13 13
21 14 49
21 15 21
21 16 91
21 17 83
21 18 34
21 19 65
21 20 11
22 0 45
22 1 24
22 2 81
22 3 43
22 4 40
22 5 82
22 6 89
22 7 25
22 8 82
22 9 43
22 10 74
22 11 3
22 12 25
22 13 50
22 14 10
22 15 1
22 16 3
22 17 72
22 18 98
22 19 79
22 20 1
22 21 2
23 0 55
23 1 61
23 2 81
23 3 89
23 4 35
23 5 36
23 6 91
23 7 57
23 8 61
23 9 44
23 10 13
23 11 7
23 12 11
23 13 25
23 14 38
23 15 19
23 16 87
23 17 79
23 18 70
23 19 84
23 20 38
23 21 63
23 22 3
24 0 43
24 1 47
24 2 38
24 3 11
24 4 1
24 5 84
24 6 23
24 7 60
24 8 68
24 9 87
24 10 31
24 11 18
24 12 19
24 13 29
24 14 92
24 15 32
24 16 78
24 17 74
24 18 85
24 19 96
24 20 95
24 21 43
24 22 37
24 23 19
25 0 31
25 1 31
25 2 59
25 3 91
25 4 100
25 5 50
25 6 29
25 7 71
25 8 21
25 9 89
25 10 42
25 11 79
25 12 78
25 13 20
25 14 84
25 15 49
25 16 2
25 17 85
25 18 99
25 19 68
25 20 6
25 21 43
25 22 65
25 23 33
25 24 48
26 0 69
26 1 88
26 2 70
26 3 6
26 4 27
26 5 86
26 6 21
26 7 79
26 8 63
26 9 22
26 10 87
26 11 54
26 12 85
26 13 94
26 14 70
26 15 10
26 16 32
26 17 18
26 18 72
26 19 34
26 20 45
26 21 44
26 22 31
26 23 82
26 24 98
26 25 81
27 0 3
27 1 1
27 2 43
27 3 50
27 4 25
27 5 7
27 6 76
27 7 70
27 8 19
27 9 79
27 10 46
27 11 41
27 12 11
27 13 97
27 14 45
27 15 5
27 16 86
27 17 70
27 18 54
27 19 75
27 20 1
27 21 3
27 22 42
27 23 63
27 24 21
27 25 5
27 26 35
28 0 72
28 1 61
28 2 44
28 3 3
28 4 2
28 5 36
28 6 96
28 7 35
28 8 3
28 9 60
28 10 47
28 11 4
28 12 77
28 13 49
28 14 37
28 15 24
28 16 93
28 17 9
28 18 67
28 19 70
28 20 93
28 21 19
28 22 1
28 23 14
28 24 81
28 25 45
28 26 32
28 27 77
29 0 39
29 1 36
29 2 94
29 3 20
29 4 99
29 5 100
29 6 54
29 7 16
29 8 68
29 9 41
29 10 95
29 11 85
29 12 3
29 13 26
29 14 76
29 15 60
29 16 51
29 17 6
29 18 55
29 19 49
29 20 25
29 21 99
29 22 80
29 23 85
29 24 77
29 25 33
29 26 95
29 27 89
29 28 78
30 0 75
30 1 27
30 2 97
30 3 33
30 4 25
30 5 41
30 6 97
30 7 77
30 8 33
30 9 71
30 10 17
30 11 28
30 12 69
30 13 78
30 14 27
30 15 18
30 16 63
30 17 91
30 18 64
30 19 94
30 20 86
30 21 29
30 22 84
30 23 76
30 24 45
30 25 2
30 26 2
30 27 29
30 28 7
30 29 54
31 0 84
31 1 53
31 2 77
31 3 89
31 4 84
31 5 27
31 6 6
31 7 86
31 8 51
31 9 46
31 10 83
31 11 11
31 12 55
31 13 41
31 14 57
31 15 66
31 16 89
31 17 72
31 18 77
31 19 36
31 20 62
31 21 32
31 22 57
31 23 33
31 24 86
31 25 6
31 26 8
31 27 42
31 28 14
31 29 62
31 30 68
32 0 10
32 1 98
32 2 83
32 3 59
32 4 48
32 5 52
32 6 60
32 7 23
32 8 32
32 9 63
32 10 3
32 11 28
32 12 15
32 13 70
32 14 38
32 15 50
32 16 88
32 17 98
32 18 8
32 19 59
32 20 71
32 21 43
32 22 84
32 23 72
32 24 94
32 25 17
32 26 62
32 27 60
32 28 14
32 29 12
32 30 95
32 31 9
33 0 81
33 1 42
33 2 95
33 3 71
33 4 35
33 5 70
33 6 96
33 7 65
33 8 18
33 9 33
33 10 63
33 11 14
33 12 12
33 13 7
33 14 96
33 15 17
33 16 46
33 17 3
33 18 58
33 19 97
33 20 37
33 21 57
33 22 27
33 23 83
33 24 51
33 25 66
33 26 43
33 27 2
33 28 6
33 29 99
33 30 24
33 31 1
33 32 43
34 0 56
34 1 40
34 2 19
34 3 43
34 4 73
34 5 90
34 6 79
34 7 76
34 8 88
34 9 26
34 10 74
34 11 89
34 12 33
34 13 94
34 14 61
34 15 80
34 16 88
34 17 4
34 18 95
34 19 22
34 20 26
34 21 57
34 22 59
34 23 23
34 24 57
34 25 69
34 26 76
34 27 43
34 28 8
34 29 81
34 30 9
34 31 92
34 32 23
34 33 49
35 0 82
35 1 96
35 2 75
35 3 50
35 4 85
35 5 4
35 6 7
35 7 46
35 8 40
35 9 53
35 10 49
35 11 84
35 12 38
35 13 34
35 14 86
35 15 47
35 16 84
35 17 26
35 18 65
35 19 63
35 20 2
35 21 76
35 22 72
35 23 43
35 24 86
35 25 54
35 26 14
35 27 4
35 28 11
35 29 12
35 30 82
35 31 8
35 32 25
35 33 13
35 34 93
36 0 8
36 1 93
36 2 27
36 3 28
36 4 91
36 5 62
36 6 97
36 7 10
36 8 57
36 9 75
36 10 24
36 11 99
36 12 70
36 13 44
36 14 29
36 15 93
36 16 86
36 17 59
36 18 86
36 19 62
36 20 15
36 21 6
36 22 39
36 23 53
36 24 2
36 25 9
36 26 39
36 27 48
36 28 15
36 29 19
36 30 73
36 31 54
36 32 81
36 33 19
36 34 63
36 35 68
37 0 13
37 1 24
37 2 66
37 3 37
37 4 5
37 5 82
37 6 97
37 7 10
37 8 6
37 9 13
37 10 51
37 11 51
37 12 85
37 13 41
37 14 6
37 15 63
37 16 55
37 17 4
37 18 31
37 19 37
37 20 19
37 21 49
37 22 29
37 23 25
37 24 53
37 25 51
37 26 82
37 27 16
37 28 39
37 29 98
37 30 91
37 31 37
37 32 12
37 33 53
37 34 24
37 35 35
37 36 92
38 0 68
38 1 6
38 2 98
38 3 3
38 4 8
38 5 25
38 6 18
38 7 7
38 8 40
38 9 32
38 10 15
38 11 10
38 12 52
38 13 65
38 14 68
38 15 2
38 16 35
38 17 18
38 18 25
38 19 51
38 20 43
38 21 37
38 22 81
38 23 70
38 24 4
38 25 15
38 26 56
38 27 2
38 28 44
38 29 18
38 30 7
38 31 13
38 32 57
38 33 68
38 34 57
38 35 86
38 36 38
38 37 55
39 0 23
39 1 48
39 2 39
39 3 67
39 4 72
39 5 75
39 6 43
39 7 40
39 8 55
39 9 62
39 10 41
39 11 96
39 12 78
39 13 50
39 14 71
39 15 96
39 16 13
39 17 46
39 18 62
39 19 31
39 20 70
39 21 75
39 22 69
39 23 44
39 24 72
39 25 65
39 26 6
39 27 32
39 28 11
39 29 30
39 30 17
39 31 90
39 32 66
39 33 22
39 34 33
39 35 89
39 36 23
39 37 59
39 38 7
40 0 91
40 1 29
40 2 48
40 3 32
40 4 65
40 5 52
40 6 72
40 7 71
40 8 37
40 9 50
40 10 87
40 11 64
40 12 89
40 13 64
40 14 70
40 15 95
40 16 12
40 17 78
40 18 10
40 19 18
40 20 46
40 21 25
40 22 20
40 23 88
40 24 82
40 25 30
40 26 23
40 27 42
40 28 14
40 29 5
40 30 45
40 31 28
40 32 47
40 33 58
40 34 3
40 35 79
40 36 8
40 37 66
40 38 81
40 39 64
41 0 27
41 1 24
41 2 29
41 3 86
41 4 63
41 5 81
41 6 35
41 7 99
41 8 14
41 9 18
41 10 42
41 11 58
41 12 21
41 13 28
41 14 15
41 15 28
41 16 55
41 17 97
41 18 94
41 19 26
41 20 65
41 21 19
41 22 63
41 23 56
41 24 2
41 25 67
41 26 36
41 27 70
41 28 57
41 29 10
41 30 51
41 31 67
41 32 89
41 33 72
41 34 89
41 35 3
41 36 15
41 37 34
41 38 95
41 39 85
41 40 87
42 0 48
42 1 51
42 2 68
42 3 97
42 4 21
42 5 21
42 6 73
42 7 71
42 8 67
42 9 92
42 10 3
42 11 34
42 12 46
42 13 49
42 14 25
42 15 77
42 16 45
42 17 87
42 18 31
42 19 52
42 20 55
42 21 33
42 22 11
42 23 67
42 24 57
42 25 30
42 26 5
42 27 58
42 28 25
42 29 17
42 30 98
42 31 78
42 32 100
42 33 90
42 34 84
42 35 11
42 36 100
42 37 51
42 38 26
42 39 96
42 40 66
42 41 52
43 0 64
43 1 49
43 2 61
43 3 17
43 4 71
43 5 89
43 6 69
43 7 88
43 8 38
43 9 15
43 10 71
43 11 17
43 12 54
43 13 88
43 14 77
43 15 25
43 16 13
43 17 28
43 18 57
43 19 74
43 20 40
43 21 16
43 22 98
43 23 42
43 24 53
43 25 57
43 26 66
43 27 89
43 28 79
43 29 62
43 30 71
43 31 54
43 32 88
43 33 40
43 34 51
43 35 19
43 36 41
43 37 16
43 38 17
43 39 35
43 40 35
43 41 6
43 42 45
44 0 3
44 1 98
44 2 32
44 3 88
44 4 27
44 5 90
44 6 41
44 7 55
44 8 15
44 9 85
44 10 67
44 11 75
44 12 80
44 13 45
44 14 57
44 15 42
44 16 63
44 17 23
44 18 38
44 19 19
44 20 88
44 21 56
44 22 6
44 23 29
44 24 13
44 25 17
44 26 59
44 27 81
44 28 51
44 29 47
44 30 100
44 31 92
44 32 60
44 33 4
44 34 98
44 35 14
44 36 30
44 37 66
44 38 68
44 39 75
44 40 25
44 41 98
44 42 9
44 43 88
45 0 40
45 1 70
45 2 24
45 3 91
45 4 4
45 5 70
45 6 91
45 7 24
45 8 20
45 9 70
45 10 78
45 11 52
45 12 29
45 13 23
45 14 11
45 15 85
45 16 48
45 17 100
45 18 41
45 19 75
45 20 96
45 21 9
45 22 63
45 23 64
45 24 39
45 25 44
45 26 92
45 27 25
45 28 95
45 29 46
45 30 94
45 31 32
45 32 82
45 33 95
45 34 30
45 35 29
45 36 12
45 37 62
45 38 55
45 39 96
45 40 58
45 41 67
45 42 84
45 43 31
45 44 35
46 0 48
46 1 24
46 2 1
46 3 98
46 4 31
46 5 16
46 6 18
46 7 23
46 8 42
46 9 58
46 10 49
46 11 30
46 12 22
46 13 80
46 14 77
46 15 85
46 16 16
46 17 13
46 18 59
46 19 55
46 20 59
46 21 68
46 22 42
46 23 27
46 24 90
46 25 94
46 26 51
46 27 15
46 28 32
46 29 19
46 30 55
46 31 1
46 32 57
46 33 70
46 34 64
46 35 98
46 36 7
46 37 18
46 38 21
46 39 22
46 40 37
46 41 23
46 42 96
46 43 22
46 44 5
46 45 44
47 0 87
47 1 92
47 2 30
47 3 62
47 4 91
47 5 66
47 6 88
47 7 19
47 8 100
47 9 89
47 10 9
47 11 69
47 12 31
47 13 80
47 14 20
47 15 7
47 16 98
47 17 66
47 18 8
47 19 11
47 20 86
47 21 30
47 22 43
47 23 10
47 24 80
47 25 9
47 26 49
47 27 80
47 28 67
47 29 37
47 30 23
47 31 11
47 32 6
47 33 12
47 34 62
47 35 8
47 36 36
47 37 45
47 38 9
47 39 21
47 40 76
47 41 5
47 42 57
47 43 4
47 44 19
47 45 78
47 46 64
48 0 68
48 1 42
48 2 1
48 3 70
48 4 61
48 5 74
48 6 36
48 7 10
48 8 93
48 9 97
48 10 1
48 11 72
48 12 96
48 13 68
48 14 71
48 15 45
48 16 86
48 17 96
48 18 11
48 19 53
48 20 56
48 21 3
48 22 7
48 23 71
48 24 29
48 25 56
48 26 17
48 27 63
48 28 49
48 29 51
48 30 39
48 31 99
48 32 82
48 33 86
48 34 80
48 35 34
48 36 55
48 37 46
48 38 74
48 39 60
48 40 69
48 41 98
48 42 80
48 43 54
48 44 49
48 45 72
48 46 55
48 47 95
49 0 16
49 1 50
49 2 84
49 3 25
49 4 11
49 5 21
49 6 22
49 7 55
49 8 85
49 9 61
49 10 65
49 11 70
49 12 51
49 13 39
49 14 62
49 15 68
49 16 56
49 17 67
49 18 39
49 19 32
49 20 12
49 21 43
49 22 90
49 23 33
49 24 10
49 25 52
49 26 60
49 27 11
49 28 92
49 29 30
49 30 22
49 31 70
49 32 61
49 33 3
49 34 27
49 35 97
49 36 48
49 37 49
49 38 79
49 39 91
49 40 82
49 41 58
49 42 54
49 43 47
49 44 14
49 45 78
49 46 82
49 47 47
49 48 92
50 0 75
50 1 48
50 2 51
50 3 3
50 4 49
50 5 82
50 6 80
50 7 22
50 8 79
50 9 52
50 10 43
50 11 23
50 12 87
50 13 74
50 14 49
50 15 52
50 16 50
50 17 98
50 18 3
50 19 74
50 20 99
50 21 49
50 22 76
50 23 29
50 24 79
50 25 17
50 26 4
50 27 67
50 28 68
50 29 33
50 30 54
50 31 46
50 32 63
50 33 71
50 34 49
50 35 14
50 36 4
50 37 64
50 38 72
50 39 9
50 40 74
50 41 32
50 42 51
50 43 44
50 44 100
50 45 46
50 46 19
50 47 65
50 48 61
50 49 85
51 0 7
51 1 96
51 2 43
51 3 56
51 4 89
51 5 18
51 6 33
51 7 87
51 8 13
51 9 30
51 10 25
51 11 19
51 12 66
51 13 100
51 14 71
51 15 36
51 16 73
51 17 12
51 18 19
51 19 33
51 20 21
51 21 41
51 22 16
51 23 1
51 24 52
51 25 33
51 26 52
51 27 74
51 28 80
51 29 80
51 30 96
51 31 72
51 32 15
51 33 86
51 34 36
51 35 38
51 36 2
51 37 87
51 38 24
51 39 55
51 40 14
51 41 78
51 42 2
51 43 72
51 44 39
51 45 27
51 46 34
51 47 98
51 48 71
51 49 15
51 50 95
52 0 35
52 1 94
52 2 18
52 3 87
52 4 59
52 5 94
52 6 6
52 7 67
52 8 56
52 9 67
52 10 50
52 11 21
52 12 1
52 13 95
52 14 44
52 15 27
52 16 16
52 17 4
52 18 91
52 19 67
52 20 40
52 21 41
52 22 10
52 23 100
52 24 24
52 25 16
52 26 52
52 27 3
52 28 5
52 29 8
52 30 51
52 31 36
52 32 32
52 33 26
52 34 38
52 35 89
52 36 60
52 37 73
52 38 84
52 39 27
52 40 24
52 41 65
52 42 66
52 43 26
52 44 43
52 45 91
52 46 69
52 47 78
52 48 55
52 49 7
52 50 62
52 51 1
53 0 53
53 1 30
53 2 10
53 3 85
53 4 71
53 5 52
53 6 21
53 7 59
53 8 65
53 9 86
53 10 28
53 11 63
53 12 62
53 13 38
53 14 60
53 15 55
53 16 90
53 17 45
53 18 58
53 19 86
53 20 2
53 21 23
53 22 22
53 23 36
53 24 59
53 25 38
53 26 20
53 27 76
53 28 36
53 29 71
53 30 76
53 31 9
53 32 66
53 33 39
53 34 17
53 35 4
53 36 37
53 37 18
53 38 68
53 39 27
53 40 10
53 41 52
53 42 98
53 43 34
53 44 10
53 45 55
53 46 70
53 47 67
53 48 20
53 49 47
53 50 54
53 51 88
53 52 81
54 0 69
54 1 82
54 2 31
54 3 70
54 4 79
54 5 84
54 6 53
54 7 16
54 8 11
54 9 21
54 10 29
54 11 70
54 12 61
54 13 87
54 14 100
54 15 40
54 16 29
54 17 77
54 18 94
54 19 63
54 20 22
54 21 23
54 22 57
54 23 74
54 24 16
54 25 49
54 26 75
54 27 81
54 28 8
54 29 100
54 30 81
54 31 74
54 32 28
54 33 42
54 34 57
54 35 16
54 36 78
54 37 40
54 38 97
54 39 97
54 40 21
54 41 61
54 42 72
54 43 51
54 44 42
54 45 62
54 46 31
54 47 59
54 48 50
54 49 51
54 50 23
54 51 3
54 52 91
54 53 41
55 0 5
55 1 26
55 2 94
55 3 34
55 4 6
55 5 27
55 6 70
55 7 92
55 8 32
55 9 91
55 10 37
55 11 1
55 12 48
55 13 29
55 14 41
55 15 26
55 16 70
55 17 89
55 18 82
55 19 2
55 20 37
55 21 46
55 22 95
55 23 32
55 24 78
55 25 99
55 26 18
55 27 75
55 28 68
55 29 29
55 30 51
55 31 32
55 32 34
55 33 82
55 34 9
55 35 89
55 36 84
55 37 97
55 38 95
55 39 57
55 40 45
55 41 99
55 42 60
55 43 24
55 44 36
55 45 95
55 46 24
55 47 3
55 48 24
55 49 78
55 50 84
55 51 54
55 52 28
55 53 15
55 54 15
56 0 4
56 1 70
56 2 57
56 3 51
56 4 83
56 5 93
56 6 29
56 7 3
56 8 82
56 9 97
56 10 64
56 11 47
56 12 67
56 13 46
56 14 87
56 15 91
56 16 23
56 17 73
56 18 90
56 19 1
56 20 4
56 21 67
56 22 19
56 23 55
56 24 24
56 25 17
56 26 92
56 27 35
56 28 5
56 29 68
56 30 3
56 31 97
56 32 64
56 33 91
56 34 85
56 35 72
56 36 23
56 37 85
56 38 43
56 39 80
56 40 48
56 41 58
56 42 69
56 43 71
56 44 78
56 45 56
56 46 10
56 47 18
56 48 79
56 49 39
56 50 44
56 51 27
56 52 36
56 53 22
56 54 93
56 55 48
57 0 96
57 1 26
57 2 62
57 3 83
57 4 78
57 5 14
57 6 9
57 7 48
57 8 48
57 9 2
57 10 59
57 11 17
57 12 23
57 13 68
57 14 30
57 15 55
57 16 29
57 17 12
57 18 33
57 19 42
57 20 52
57 21 19
57 22 64
57 23 11
57 24 44
57 25 45
57 26 1
57 27 76
57 28 75
57 29 26
57 30 58
57 31 15
57 32 46
57 33 66
57 34 94
57 35 29
57 36 2
57 37 76
57 38 48
57 39 8
57 40 2
57 41 53
57 42 45
57 43 56
57 44 59
57 45 24
57 46 31
57 47 61
57 48 25
57 49 97
57 50 96
57 51 29
57 52 6
57 53 1
57 54 99
57 55 92
57 56 34
58 0 93
58 1 16
58 2 76
58 3 4
58 4 67
58 5 74
58 6 87
58 7 90
58 8 1
58 9 31
58 10 41
58 11 73
58 12 28
58 13 18
58 14 61
58 15 51
58 16 2
58 17 60
58 18 5
58 19 14
58 20 1
58 21 40
58 22 5
58 23 6
58 24 10
58 25 70
58 26 28
58 27 11
58 28 41
58 29 78
58 30 85
58 31 25
58 32 99
58 33 36
58 34 61
58 35 1
58 36 11
58 37 83
58 38 28
58 39 94
58 40 67
58 41 19
58 42 73
58 43 27
58 44 28
58 45 67
58 46 51
58 47 63
58 48 25
58 49 42
58 50 43
58 51 50
58 52 37
58 53 64
58 54 84
58 55 76
58 56 26
58 57 2
59 0 77
59 1 54
59 2 68
59 3 49
59 4 35
59 5 18
59 6 6
59 7 58
59 8 85
59 9 4
59 10 20
59 11 74
59 12 47
59 13 42
59 14 79
59 15 71
59 16 76
59 17 97
59 18 31
59 19 58
59 20 100
59 21 15
59 22 38
59 23 16
59 24 30
59 25 73
59 26 70
59 27 91
59 28 1
59 29 42
59 30 7
59 31 39
59 32 74
59 33 8
59 34 16
59 35 7
59 36 19
59 37 9
59 38 4
59 39 97
59 40 38
59 41 75
59 42 62
59 43 52
59 44 19
59 45 4
59 46 53
59 47 37
59 48 19
59 49 85
59 50 4
59 51 32
59 52 22
59 53 61
59 54 8
59 55 54
59 56 16
59 57 94
59 58 54
60 0 57
60 1 79
60 2 76
60 3 25
60 4 98
60 5 87
60 6 95
60 7 41
60 8 57
60 9 68
60 10 48
60 11 43
60 12 53
60 13 65
60 14 68
60 15 32
60 16 99
60 17 96
60 18 96
60 19 19
60 20 66
60 21 1
60 22 24
60 23 45
60 24 78
60 25 40
60 26 92
60 27 72
60 28 48
60 29 66
60 30 100
60 31 78
60 32 10
60 33 80
60 34 81
60 35 73
60 36 28
60 37 74
60 38 51
60 39 35
60 40 85
60 41 74
60 42 12
60 43 49
60 44 75
60 45 76
60 46 94
60 47 66
60 48 43
60 49 26
60 50 50
60 51 38
60 52 73
60 53 69
60 54 46
60 55 94
60 56 96
60 57 99
60 58 8
60 59 50
61 0 71
61 1 66
61 2 17
61 3 78
61 4 73
61 5 18
61 6 60
61 7 82
61 8 75
61 9 97
61 10 94
61 11 43
61 12 22
61 13 14
61 14 65
61 15 40
61 16 24
61 17 65
61 18 84
61 19 53
61 20 23
61 21 68
61 22 79
61 23 14
61 24 3
61 25 29
61 26 45
61 27 54
61 28 61
61 29 84
61 30 81
61 31 60
61 32 42
61 33 47
61 34 74
61 35 53
61 36 16
61 37 73
61 38 76
61 39 36
61 40 52
61 41 39
61 42 88
61 43 77
61 44 7
61 45 62
61 46 25
61 47 41
61 48 47
61 49 26
61 50 59
61 51 58
61 52 53
61 53 4
61 54 41
61 55 15
61 56 1
61 57 69
61 58 46
61 59 2
61 60 93
62 0 35
62 1 17
62 2 38
62 3 96
62 4 93
62 5 73
62 6 85
62 7 16
62 8 12
62 9 24
62 10 88
62 11 99
62 12 19
62 13 8
62 14 34
62 15 55
62 16 2
62 17 32
62 18 100
62 19 31
62 20 66
62 21 93
62 22 32
62 23 91
62 24 62
62 25 6
62 26 85
62 27 72
62 28 68
62 29 68
62 30 6
62 31 20
62 32 63
62 33 29
62 34 50
62 35 46
62 36 65
62 37 52
62 38 48
62 39 26
62 40 98
62 41 91
62 42 78
62 43 53
62 44 7
62 45 8
62 46 8
62 47 22
62 48 48
62 49 10
62 50 4
62 51 81
62 52 23
62 53 77
62 54 27
62 55 1
62 56 24
62 57 21
62 58 60
62 59 49
62 60 13
62 61 91
63 0 43
63 1 43
63 2 63
63 3 96
63 4 7
63 5 48
63 6 8
63 7 49
63 8 28
63 9 38
63 10 12
63 11 24
63 12 43
63 13 12
63 14 38
63 15 85
63 16 10
63 17 72
63 18 59
63 19 35
63 20 95
63 21 74
63 22 81
63 23 89
63 24 17
63 25 20
63 26 44
63 27 77
63 28 85
63 29 60
63 30 20
63 31 19
63 32 10
63 33 2
63 34 33
63 35 32
63 36 84
63 37 71
63 38 72
63 39 71
63 40 39
63 41 51
63 42 65
63 43 99
63 44 38
63 45 100
63 46 32
63 47 45
63 48 80
63 49 40
63 50 51
63 51 2
63 52 84
63 53 34
63 54 86
63 55 57
63 56 9
63 57 25
63 58 69
63 59 71
63 60 28
63 61 93
63 62 42
64 0 49
64 1 45
64 2 45
64 3 91
64 4 52
64 5 33
64 6 58
64 7 28
64 8 58
64 9 34
64 10 34
64 11 12
64 12 79
64 13 51
64 14 33
64 15 7
64 16 67
64 17 5
64 18 98
64 19 18
64 20 86
64 21 66
64 22 91
64 23 60
64 24 23
64 25 58
64 26 95
64 27 45
64 28 77
64 29 98
64 30 59
64 31 88
64 32 37
64 33 38
64 34 87
64 35 83
64 36 34
64 37 99
64 38 95
64 39 79
64 40 48
64 41 28
64 42 96
64 43 73
64 44 86
64 45 13
64 46 86
64 47 94
64 48 72
64 49 33
64 50 24
64 51 42
64 52 11
64 53 41
64 54 50
64 55 19
64 56 13
64 57 89
64 58 81
64 59 40
64 60 7
64 61 58
64 62 63
64 63 41
65 0 60
65 1 49
65 2 83
65 3 7
65 4 90
65 5 36
65 6 73
65 7 81
65 8 44
65 9 6
65 10 47
65 11 43
65 12 65
65 13 22
65 14 57
65 15 53
65 16 86
65 17 91
65 18 64
65 19 14
65 20 16
65 21 22
65 22 58
65 23 87
65 24 99
65 25 4
65 26 70
65 27 59
65 28 78
65 29 41
65 30 62
65 31 70
65 32 84
65 33 23
65 34 86
65 35 25
65 36 28
65 37 23
65 38 56
65 39 56
65 40 79
65 41 42
65 42 64
65 43 12
65 44 48
65 45 52
65 46 32
65 47 92
65 48 6
65 49 96
65 50 99
65 51 46
65 52 19
65 53 57
65 54 65
65 55 11
65 56 65
65 57 4
65 58 49
65 59 54
65 60 79
65 61 67
65 62 38
65 63 45
65 64 28
66 0 6
66 1 21
66 2 78
66 3 15
66 4 78
66 5 50
66 6 5
66 7 81
66 8 18
66 9 61
66 10 78
66 11 21
66 12 73
66 13 54
66 14 75
66 15 67
66 16 75
66 17 10
66 18 86
66 19 82
66 20 40
66 21 92
66 22 78
66 23 76
66 24 2
66 25 72
66 26 47
66 27 36
66 28 58
66 29 61
66 30 58
66 31 33
66 32 60
66 33 44
66 34 1
66 35 52
66 36 78
66 37 59
66 38 31
66 39 39
66 40 33
66 41 50
66 42 63
66 43 90
66 44 62
66 45 84
66 46 47
66 47 5
66 48 81
66 49 44
66 50 38
66 51 81
66 52 30
66 53 99
66 54 32
66 55 37
66 56 39
66 57 26
66 58 41
66 59 75
66 60 53
66 61 51
66 62 33
66 63 24
66 64 81
66 65 9
67 0 45
67 1 28
67 2 68
67 3 63
67 4 45
67 5 71
67 6 23
67 7 8
67 8 29
67 9 46
67 10 26
67 11 72
67 12 42
67 13 25
67 14 4
67 15 82
67 16 74
67 17 64
67 18 65
67 19 47
67 20 85
67 21 66
67 22 100
67 23 96
67 24 37
67 25 93
67 26 27
67 27 50
67 28 45
67 29 78
67 30 9
67 31 37
67 32 82
67 33 96
67 34 81
67 35 71
67 36 92
67 37 84
67 38 75
67 39 44
67 40 96
67 41 31
67 42 7
67 43 16
67 44 3
67 45 67
67 46 92
67 47 99
67 48 49
67 49 25
67 50 78
67 51 66
67 52 38
67 53 55
67 54 30
67 55 30
67 56 48
67 57 18
67 58 98
67 59 83
67 60 32
67 61 88
67 62 50
67 63 77
67 64 30
67 65 29
67 66 54
68 0 98
68 1 57
68 2 45
68 3 45
68 4 64
68 5 52
68 6 1
68 7 9
68 8 34
68 9 95
68 10 70
68 11 61
68 12 35
68 13 21
68 14 64
68 15 12
68 16 17
68 17 93
68 18 37
68 19 47
68 20 7
68 21 19
68 22 78
68 23 55
68 24 26
68 25 17
68 26 28
68 27 89
68 28 75
68 29 64
68 30 95
68 31 42
68 32 23
68 33 86
68 34 46
68 35 71
68 36 34
68 37 73
68 38 96
68 39 5
68 40 26
68 41 24
68 42 36
68 43 16
68 44 58
68 45 62
68 46 54
68 47 37
68 48 64
68 49 70
68 50 52
68 51 61
68 52 100
68 53 37
68 54 66
68 55 62
68 56 69
68 57 15
68 58 23
68 59 3
68 60 38
68 61 32
68 62 16
68 63 32
68 64 57
68 65 3
68 66 66
68 67 87
69 0 49
69 1 39
69 2 4
69 3 58
69 4 41
69 5 48
69 6 100
69 7 65
69 8 31
69 9 75
69 10 7
69 11 64
69 12 34
69 13 22
69 14 12
69 15 88
69 16 41
69 17 50
69 18 4
69 19 82
69 20 86
69 21 57
69 22 9
69 23 82
69 24 100
69 25 72
69 26 35
69 27 62
69 28 10
69 29 20
69 30 40
69 31 44
69 32 99
69 33 45
69 34 25
69 35 32
69 36 41
69 37 96
69 38 94
69 39 31
69 40 75
69 41 11
69 42 41
69 43 61
69 44 83
69 45 51
69 46 65
69 47 67
69 48 92
69 49 84
69 50 13
69 51 87
69 52 94
69 53 1
69 54 3
69 55 40
69 56 88
69 57 27
69 58 84
69 59 37
69 60 53
69 61 58
69 62 24
69 63 22
69 64 31
69 65 24
69 66 38
69 67 11
69 68 68
70 0 84
70 1 10
70 2 73
70 3 39
70 4 83
70 5 43
70 6 71
70 7 67
70 8 25
70 9 65
70 10 73
70 11 3
70 12 53
70 13 71
70 14 77
70 15 27
70 16 48
70 17 65
70 18 34
70 19 86
70 20 61
70 21 48
70 22 39
70 23 90
70 24 59
70 25 59
70 26 46
70 27 18
70 28 54
70 29 67
70 30 16
70 31 11
70 32 28
70 33 68
70 34 99
70 35 61
70 36 84
70 37 35
70 38 24
70 39 1
70 40 90
70 41 34
70 42 33
70 43 85
70 44 82
70 45 88
70 46 95
70 47 95
70 48 57
70 49 66
70 50 75
70 51 4
70 52 71
70 53 29
70 54 51
70 55 15
70 56 3
70 57 38
70 58 2
70 59 21
70 60 81
70 61 45
70 62 16
70 63 69
70 64 60
70 65 81
70 66 81
70 67 36
70 68 100
70 69 43
71 0 54
71 1 28
71 2 90
71 3 28
71 4 46
71 5 69
71 6 16
71 7 64
71 8 42
71 9 51
71 10 65
71 11 55
71 12 51
71 13 40
71 14 10
71 15 15
71 16 63
71 17 86
71 18 26
71 19 74
71 20 52
71 21 59
71 22 31
71 23 81
71 24 47
71 25 16
71 26 48
71 27 24
71 28 71
71 29 83
71 30 24
71 31 57
71 32 16
71 33 84
71 34 78
71 35 4
71 36 93
71 37 78
71 38 39
71 39 57
71 40 92
71 41 59
71 42 96
71 43 19
71 44 34
71 45 48
71 46 95
71 47 42
71 48 97
71 49 85
71 50 31
71 51 60
71 52 50
71 53 73
71 54 26
71 55 25
71 56 25
71 57 71
71 58 4
71 59 91
71 60 19
71 61 7
71 62 78
71 63 2
71 64 100
71 65 64
71 66 38
71 67 86
71 68 55
71 69 85
71 70 91
72 0 52
72 1 8
72 2 57
72 3 82
72 4 56
72 5 2
72 6 2
72 7 28
72 8 64
72 9 17
72 10 85
72 11 6
72 12 39
72 13 59
72 14 91
72 15 100
72 16 36
72 17 65
72 18 59
72 19 6
72 20 71
72 21 85
72 22 67
72 23 23
72 24 1
72 25 48
72 26 88
72 27 93
72 28 26
72 29 30
72 30 87
72 31 78
72 32 22
72 33 60
72 34 24
72 35 77
72 36 35
72 37 53
72 38 63
72 39 9
72 40 15
72 41 44
72 42 17
72 43 40
72 44 67
72 45 66
72 46 91
72 47 14
72 48 43
72 49 95
72 50 80
72 51 14
72 52 7
72 53 57
72 54 43
72 55 77
72 56 39
72 57 67
72 58 63
72 59 26
72 60 77
72 61 46
72 62 65
72 63 96
72 64 94
72 65 38
72 66 47
72 67 70
72 68 63
72 69 19
72 70 43
72 71 53
73 0 74
73 1 77
73 2 35
73 3 40
73 4 83
73 5 94
73 6 73
73 7 73
73 8 15
73 9 70
73 10 72
73 11 77
73 12 62
73 13 65
73 14 97
73 15 28
73 16 34
73 17 48
73 18 55
73 19 93
73 20 54
73 21 78
73 22 52
73 23 38
73 24 18
73 25 67
73 26 83
73 27 6
73 28 52
73 29 83
73 30 74
73 31 3
73 32 35
73 33 2
73 34 81
73 35 42
73 36 68
73 37 24
73 38 19
73 39 40
73 40 23
73 41 91
73 42 77
73 43 61
73 44 89
73 45 100
73 46 44
73 47 56
73 48 96
73 49 78
73 50 50
73 51 42
73 52 97
73 53 64
73 54 96
73 55 15
73 56 29
73 57 25
73 58 26
73 59 95
73 60 85
73 61 95
73 62 68
73 63 48
73 64 69
73 65 14
73 66 51
73 67 31
73 68 17
73 69 5
73 70 62
73 71 52
73 72 8
74 0 17
74 1 10
74 2 54
74 3 89
74 4 25
74 5 13
74 6 40
74 7 96
74 8 62
74 9 20
74 10 25
74 11 45
74 12 20
74 13 30
74 14 72
74 15 17
74 16 58
74 17 75
74 18 35
74 19 79
74 20 86
74 21 89
74 22 40
74 23 90
74 24 26
74 25 61
74 26 54
74 27 100
74 28 72
74 29 49
74 30 39
74 31 47
74 32 83
74 33 19
74 34 88
74 35 87
74 36 92
74 37 17
74 38 79
74 39 35
74 40 28
74 41 91
74 42 12
74 43 93
74 44 55
74 45 33
74 46 98
74 47 87
74 48 94
74 49 98
74 50 21
74 51 52
74 52 85
74 53 14
74 54 6
74 55 22
74 56 91
74 57 11
74 58 38
74 59 32
74 60 64
74 61 9
74 62 32
74 63 17
74 64 15
74 65 57
74 66 52
74 67 88
74 68 62
74 69 14
74 70 9
74 71 2
74 72 55
74 73 4
